c description: Random 3-CNF over 25 variables and 107 clauses
c generator: CNFgen (0.9.2)
c copyright: (C) 2012-2022 Massimo Lauria <massimo.lauria@uniroma1.it>
c url: https://massimolauria.net/cnfgen
c command line: cnfgen --output CNF_4.28/25_bit_107_792.cnf randkcnf 3 25 107
c
p cnf 25 107
-3 -9 -15 0
10 12 25 0
-9 20 24 0
-2 -7 23 0
8 14 -23 0
18 22 24 0
-19 21 23 0
-5 15 -19 0
9 15 -21 0
-3 -5 -25 0
-15 21 -24 0
10 -12 21 0
5 -7 23 0
1 -12 -16 0
1 -7 -20 0
-1 16 19 0
-10 12 15 0
10 -11 -17 0
-5 -12 14 0
-4 -15 -24 0
11 15 -25 0
-3 23 25 0
-8 9 -20 0
4 15 -20 0
3 -8 9 0
-4 -11 23 0
9 10 -19 0
7 17 24 0
1 -9 -25 0
3 -12 -17 0
6 20 22 0
6 12 -24 0
1 4 -16 0
5 13 -21 0
-1 9 19 0
-10 22 25 0
-2 6 20 0
-4 15 20 0
10 -20 -22 0
-6 -9 12 0
1 8 -9 0
-2 -4 -11 0
10 -13 -23 0
-4 -11 -13 0
-11 -21 23 0
14 22 24 0
12 -14 -18 0
-1 14 -17 0
12 13 18 0
2 -4 -17 0
-4 14 16 0
7 12 17 0
-1 -2 -7 0
-4 -6 14 0
-1 11 -15 0
4 15 18 0
1 -5 -17 0
15 21 -25 0
5 9 -15 0
2 -8 22 0
2 10 -12 0
6 -20 -23 0
2 9 12 0
-3 -17 -20 0
-9 12 -20 0
-3 -13 17 0
-5 9 -18 0
5 10 14 0
-6 8 -21 0
-15 -18 -24 0
4 -14 -19 0
-5 -11 -15 0
1 22 23 0
-2 12 -14 0
-8 19 21 0
-9 -15 -24 0
6 9 16 0
3 -11 14 0
4 6 22 0
3 -7 11 0
4 -7 -11 0
1 5 -22 0
11 20 23 0
-5 12 13 0
6 -16 20 0
-11 17 -25 0
5 -6 -11 0
1 -7 11 0
14 -21 -25 0
10 14 -23 0
21 22 25 0
-6 -12 17 0
-3 19 23 0
-12 14 23 0
-9 20 -23 0
-5 15 -25 0
-12 -15 22 0
-8 -10 -24 0
-9 -14 -15 0
6 -10 -24 0
-8 -14 -15 0
3 -18 20 0
15 -17 20 0
-1 9 -22 0
-12 -15 -22 0
4 -5 23 0
11 -13 22 0
